NAME : compression
TYPE : TSP
DIMENSION : 50
EDGE_WEIGHT_TYPE : EUC_2D
NODE_COORD_SECTION
1 868269 630470
2 943802 349423
3 364245 193666
4 214750 519103
5 447749 65380
6 446877 165120
7 769608 326782
8 288781 695704
9 792336 307389
10 925387 194769
11 272241 660321
12 282473 682210
13 115199 30063
14 751813 324647
15 193441 466906
16 935232 601366
17 157818 533975
18 606514 657347
19 503579 560921
20 699071 876193
21 592645 658771
22 528161 665393
23 6068 852290
24 473721 57912
25 424751 99340
26 800154 785260
27 208376 471724
28 283184 683050
29 181212 574305
30 308091 737013
31 729901 333978
32 518492 666386
33 487518 959805
34 960551 259121
35 302629 607542
36 167842 531941
37 620954 724683
38 823138 296910
39 833717 289766
40 308004 694763
41 355417 736351
42 806200 653671
43 51679 252007
44 736467 644004
45 776952 652443
46 800385 347940
47 371511 706957
48 178598 549200
49 591026 728717
50 448597 157455
EOF
